Traveling Salesman Problem/TSP_generados/Aleatorio1620390848_5.tsp
NAME: Aleatorio1620390848_5.tsp
COMMENT: Randomly generated scenario
TYPE: TSP
DIMENSION: 5
EDGE_WEIGHT_TYPE: ATT
NODE_COORD_SECTION
1 32.47 21.35
2 24.04 46.26
3 29.79 16.2
4 5.25 3.57
5 14.59 15.49
